50 10268

59
181
221
88
237
38
168
475
297
209
83
201
335
61
289
79
351
469
153
62
334
480
136
184
359
393
301
85
154
165
310
477
236
476
284
352
271
180
253
167
163
381
108
249
212
450
466
420
258
475
